#######################################
### Exact MIP solver for the HHCRSP ###
#######################################
-- Instance file: new-instances/HHCRSP_400_80_1_0.8_C_RC.txt
-- Max threads: 4
-- Time limit: 999999 seconds
-- Use initial solution: No
Trivial flow violations prevented generating 2885139 variables.
Version identifier: 20.1.0.0 | 2020-11-10 | 9bedb6d68
CPXPARAM_Threads                                 4
CPXPARAM_Emphasis_Memory                         1
CPXPARAM_TimeLimit                               999999
Tried aggregator 1 time.
Presolve has eliminated 90426 rows and 22023 columns...
LP Presolve eliminated 90426 rows and 22023 columns.
Reduced LP has 3409020 rows, 3221754 columns, and 104456115 nonzeros.
Presolve time = 120.89 sec. (21977.94 ticks)
Compression time = 25.74 sec. (6.43 ticks)
Compression reduced 1485.56 MB A matrix to 446.92 MB
Symmetry aggregator did 5894995 additional substitutions.
Elapsed time = 148.44 sec. (22862.58 ticks, 1 iterations)

Iteration log . . .
Iteration:     1   Dual objective     =             0.000000
Iteration:  1767   Dual objective     =           491.000000

Dual crossover.
  Dual:  Fixing 3474 variables.
     3473 DMoves:  Infeasibility  3.35481642e-12  Objective  4.91000000e+02
        0 DMoves:  Infeasibility  1.51773039e-12  Objective  4.91000000e+02
  Dual:  Pushed 80, exchanged 3394.
  Primal:  Fixing 2754 variables.
     2753 PMoves:  Infeasibility  0.00000000e+00  Objective  4.91000000e+02
        0 PMoves:  Infeasibility  0.00000000e+00  Objective  4.91000000e+02
  Primal:  Pushed 2563, exchanged 191.

Solution status from MIP model:
-- Processing time: 199.153 sec.
-- Memory used: 2236.23 MB
-- Best bound: inf
-- Obj value: 491
-- Gap: inf%
-- Total distance: 1473
-- Total tardiness: 0
-- Largest tardiness: 0
